
Value of objective function: 7706.00000000

Actual values of the variables:
a[0][0..1]                      0
a[0][0..2]                      0
a[0][0..3]                      0
a[0][0..4]                      0
a[0][0..5]                      0
a[0][0..6]                      0
a[0][0..7]                      0
a[0][0..8]                      0
a[0][0..9]                      0
a[0][0..10]                     0
a[0][0..11]                     0
a[0][0..12]                     0
a[0][0..13]                     0
a[0][0..14]                     0
a[0][0..15]                     0
a[0][0..16]                     0
a[0][0..17]                     0
a[0][0..18]                     0
a[0][0..19]                     0
a[0][0..20]                     0
a[0][0..21]                     0
a[0][0..22]                     0
a[0][0..23]                     0
a[0][1..2]                      0
a[0][1..3]                      0
a[0][1..4]                      0
a[0][1..5]                      0
a[0][1..6]                      0
a[0][1..7]                      0
a[0][1..8]                      0
a[0][1..9]                      0
a[0][1..10]                     0
a[0][1..11]                     0
a[0][1..12]                     0
a[0][1..13]                     0
a[0][1..14]                     0
a[0][1..15]                     0
a[0][1..16]                     0
a[0][1..17]                     0
a[0][1..18]                     0
a[0][1..19]                     0
a[0][1..20]                     0
a[0][1..21]                     0
a[0][1..22]                     0
a[0][1..23]                     0
a[0][2..3]                      0
a[0][2..4]                      0
a[0][2..5]                      0
a[0][2..6]                      0
a[0][2..7]                      0
a[0][2..8]                      0
a[0][2..9]                      0
a[0][2..10]                     0
a[0][2..11]                     0
a[0][2..12]                     0
a[0][2..13]                     0
a[0][2..14]                     0
a[0][2..15]                     0
a[0][2..16]                     0
a[0][2..17]                     0
a[0][2..18]                     0
a[0][2..19]                     0
a[0][2..20]                     0
a[0][2..21]                     0
a[0][2..22]                     0
a[0][2..23]                     0
a[0][3..4]                      0
a[0][3..5]                      0
a[0][3..6]                      0
a[0][3..7]                      0
a[0][3..8]                      0
a[0][3..9]                      0
a[0][3..10]                     0
a[0][3..11]                     0
a[0][3..12]                     0
a[0][3..13]                     0
a[0][3..14]                     0
a[0][3..15]                     0
a[0][3..16]                     0
a[0][3..17]                     0
a[0][3..18]                     0
a[0][3..19]                     0
a[0][3..20]                     0
a[0][3..21]                     0
a[0][3..22]                     0
a[0][3..23]                     0
a[0][4..5]                      0
a[0][4..6]                      0
a[0][4..7]                      0
a[0][4..8]                      0
a[0][4..9]                      0
a[0][4..10]                     0
a[0][4..11]                     0
a[0][4..12]                     0
a[0][4..13]                     0
a[0][4..14]                     0
a[0][4..15]                     0
a[0][4..16]                     0
a[0][4..17]                     0
a[0][4..18]                     0
a[0][4..19]                     0
a[0][4..20]                     0
a[0][4..21]                     0
a[0][4..22]                     0
a[0][4..23]                     0
a[0][5..6]                      0
a[0][5..7]                      0
a[0][5..8]                      0
a[0][5..9]                      0
a[0][5..10]                     0
a[0][5..11]                     0
a[0][5..12]                     0
a[0][5..13]                     0
a[0][5..14]                     0
a[0][5..15]                     0
a[0][5..16]                     0
a[0][5..17]                     0
a[0][5..18]                     0
a[0][5..19]                     0
a[0][5..20]                     0
a[0][5..21]                     0
a[0][5..22]                     0
a[0][5..23]                     0
a[0][6..7]                      0
a[0][6..8]                      0
a[0][6..9]                      0
a[0][6..10]                     0
a[0][6..11]                     0
a[0][6..12]                     0
a[0][6..13]                     0
a[0][6..14]                     0
a[0][6..15]                     0
a[0][6..16]                     0
a[0][6..17]                     0
a[0][6..18]                     0
a[0][6..19]                     0
a[0][6..20]                     0
a[0][6..21]                     0
a[0][6..22]                     0
a[0][6..23]                     0
a[0][7..8]                      0
a[0][7..9]                      0
a[0][7..10]                     0
a[0][7..11]                     0
a[0][7..12]                     0
a[0][7..13]                     0
a[0][7..14]                     0
a[0][7..15]                     0
a[0][7..16]                     0
a[0][7..17]                     0
a[0][7..18]                     0
a[0][7..19]                     0
a[0][7..20]                     0
a[0][7..21]                     0
a[0][7..22]                     0
a[0][7..23]                     0
a[0][8..9]                      0
a[0][8..10]                     0
a[0][8..11]                     0
a[0][8..12]                     0
a[0][8..13]                     0
a[0][8..14]                     0
a[0][8..15]                     0
a[0][8..16]                     0
a[0][8..17]                     0
a[0][8..18]                     0
a[0][8..19]                     0
a[0][8..20]                     0
a[0][8..21]                     0
a[0][8..22]                     0
a[0][8..23]                     0
a[0][9..10]                     0
a[0][9..11]                     0
a[0][9..12]                     0
a[0][9..13]                     0
a[0][9..14]                     0
a[0][9..15]                     0
a[0][9..16]                     0
a[0][9..17]                     0
a[0][9..18]                     0
a[0][9..19]                     0
a[0][9..20]                     0
a[0][9..21]                     0
a[0][9..22]                     0
a[0][9..23]                     0
a[0][10..11]                    0
a[0][10..12]                    0
a[0][10..13]                    0
a[0][10..14]                    0
a[0][10..15]                    0
a[0][10..16]                    0
a[0][10..17]                    0
a[0][10..18]                    0
a[0][10..19]                    0
a[0][10..20]                    0
a[0][10..21]                    0
a[0][10..22]                    0
a[0][10..23]                    0
a[0][11..12]                    0
a[0][11..13]                    0
a[0][11..14]                    0
a[0][11..15]                    0
a[0][11..16]                    0
a[0][11..17]                    0
a[0][11..18]                    0
a[0][11..19]                    0
a[0][11..20]                    0
a[0][11..21]                    0
a[0][11..22]                    0
a[0][11..23]                    0
a[0][12..13]                    0
a[0][12..14]                    1
a[0][12..15]                    0
a[0][12..16]                    0
a[0][12..17]                    0
a[0][12..18]                    0
a[0][12..19]                    0
a[0][12..20]                    0
a[0][12..21]                    0
a[0][12..22]                    0
a[0][12..23]                    0
a[0][13..14]                    0
a[0][13..15]                    0
a[0][13..16]                    0
a[0][13..17]                    0
a[0][13..18]                    0
a[0][13..19]                    0
a[0][13..20]                    0
a[0][13..21]                    0
a[0][13..22]                    0
a[0][13..23]                    0
a[0][14..15]                    0
a[0][14..16]                    0
a[0][14..17]                    0
a[0][14..18]                    0
a[0][14..19]                    0
a[0][14..20]                    0
a[0][14..21]                    0
a[0][14..22]                    0
a[0][14..23]                    0
a[0][15..16]                    0
a[0][15..17]                    0
a[0][15..18]                    0
a[0][15..19]                    0
a[0][15..20]                    0
a[0][15..21]                    0
a[0][15..22]                    0
a[0][15..23]                    0
a[0][16..17]                    0
a[0][16..18]                    0
a[0][16..19]                    0
a[0][16..20]                    0
a[0][16..21]                    0
a[0][16..22]                    0
a[0][16..23]                    0
a[0][17..18]                    0
a[0][17..19]                    0
a[0][17..20]                    0
a[0][17..21]                    0
a[0][17..22]                    0
a[0][17..23]                    0
a[0][18..19]                    0
a[0][18..20]                    0
a[0][18..21]                    0
a[0][18..22]                    1
a[0][18..23]                    0
a[0][19..20]                    0
a[0][19..21]                    0
a[0][19..22]                    0
a[0][19..23]                    0
a[0][20..21]                    0
a[0][20..22]                    0
a[0][20..23]                    0
a[0][21..22]                    0
a[0][21..23]                    0
a[0][22..23]                    0
a[1][0..1]                      0
a[1][0..2]                      0
a[1][0..3]                      0
a[1][0..4]                      0
a[1][0..5]                      0
a[1][0..6]                      0
a[1][0..7]                      0
a[1][0..8]                      0
a[1][0..9]                      0
a[1][0..10]                     0
a[1][0..11]                     0
a[1][0..12]                     0
a[1][0..13]                     0
a[1][1..2]                      0
a[1][1..3]                      0
a[1][1..4]                      0
a[1][1..5]                      0
a[1][1..6]                      0
a[1][1..7]                      0
a[1][1..8]                      0
a[1][1..9]                      0
a[1][1..10]                     0
a[1][1..11]                     0
a[1][1..12]                     0
a[1][1..13]                     0
a[1][2..3]                      0
a[1][2..4]                      0
a[1][2..5]                      0
a[1][2..6]                      0
a[1][2..7]                      0
a[1][2..8]                      0
a[1][2..9]                      0
a[1][2..10]                     0
a[1][2..11]                     0
a[1][2..12]                     0
a[1][2..13]                     0
a[1][3..4]                      0
a[1][3..5]                      0
a[1][3..6]                      0
a[1][3..7]                      0
a[1][3..8]                      0
a[1][3..9]                      0
a[1][3..10]                     0
a[1][3..11]                     0
a[1][3..12]                     0
a[1][3..13]                     0
a[1][4..5]                      0
a[1][4..6]                      0
a[1][4..7]                      0
a[1][4..8]                      0
a[1][4..9]                      0
a[1][4..10]                     0
a[1][4..11]                     0
a[1][4..12]                     0
a[1][4..13]                     0
a[1][5..6]                      0
a[1][5..7]                      0
a[1][5..8]                      0
a[1][5..9]                      0
a[1][5..10]                     0
a[1][5..11]                     0
a[1][5..12]                     0
a[1][5..13]                     0
a[1][6..7]                      0
a[1][6..8]                      0
a[1][6..9]                      0
a[1][6..10]                     0
a[1][6..11]                     0
a[1][6..12]                     0
a[1][6..13]                     0
a[1][7..8]                      0
a[1][7..9]                      0
a[1][7..10]                     0
a[1][7..11]                     0
a[1][7..12]                     0
a[1][7..13]                     0
a[1][8..9]                      0
a[1][8..10]                     0
a[1][8..11]                     0
a[1][8..12]                     0
a[1][8..13]                     0
a[1][9..10]                     0
a[1][9..11]                     0
a[1][9..12]                     0
a[1][9..13]                     0
a[1][10..11]                    0
a[1][10..12]                    0
a[1][10..13]                    0
a[1][11..12]                    0
a[1][11..13]                    0
a[1][12..13]                    1
a[1][20..21]                    1
a[2][13..14]                    0
a[2][19..20]                    0
a[2][19..21]                    0
a[2][19..22]                    1
a[2][19..23]                    0
a[2][20..21]                    0
a[2][20..22]                    0
a[2][20..23]                    0
a[2][21..22]                    0
a[2][21..23]                    0
a[2][22..23]                    0
a[3][18..19]                    0
a[3][18..20]                    0
a[3][18..21]                    1
a[3][19..20]                    0
a[3][19..21]                    0
a[3][20..21]                    0
time[0]                         8
time[1]                         4
time[2]                         4
time[3]                         4
